$molecule
0 1
  O   -1.9613189    1.9685705    0.4280829
  O   -0.6802181    2.2678296    0.3679329
  H   -2.3932611    2.5708044   -0.2304054
  H   -0.2789677    1.5526525   -0.1891905
$end

$rem
   BASIS  =  6-31G
   GUI  =  2
   JOB_TYPE  =  Optimization
   METHOD  =  M06-2X
   SCF_CONVERGENCE  =  8
$end

