$molecule
0 1
  O   -3.1874208    2.7582487    0.0000000
  O   -1.8611997    2.6680038    0.0000000
  H   -3.5808926    1.8429124    0.0000000
  H   -1.5953672    1.7078024    0.0000000
$end

$rem
   BASIS  =  6-31G
   GUI  =  2
   JOB_TYPE  =  Frequency
   METHOD  =  TPSS
   SCF_CONVERGENCE  =  8
$end

