$molecule
0 1
  O   -1.1212211    1.1151419    0.0000000
  O    0.1610215    0.7646275    0.0000000
  H   -1.1920920    2.1089392    0.0000000
  H    0.7275760    1.5841791    0.0000000
$end

$rem
   BASIS  =  6-31G
   GUI  =  2
   JOB_TYPE  =  Optimization
   METHOD  =  PBE0
   SCF_CONVERGENCE  =  8
$end

